
===== New CPLEX run =====
Instance: /home/yorig/tuner/mpils-tests/instances/miplib/easy/lotsize.mps
Config: /scratch/yorig/mpils-results-grid-seconds-5-watchdog/easy/24proc/seed-5/4_lotsize_seed-5_20260504_011421/expansion/config_param_CPXPARAM_MIP_Strategy_SubAlgorithm_4_iter_2.prm
========================

Selected objective sense:  MINIMIZE
Selected objective  name:  R1921
Selected RHS        name:  B
Selected bound      name:  BOUND
Wall watchdog: enabled factor=1 grace=1 limit=6 seconds
Version identifier: 22.1.2.0 | 2024-11-26 | 0edbb82fd
CPXPARAM_Threads                                 8
CPXPARAM_Parallel                                1
CPXPARAM_MIP_Cuts_Cliques                        -1
CPXPARAM_MIP_Cuts_Covers                         -1
CPXPARAM_MIP_Strategy_SubAlgorithm               4
CPXPARAM_MIP_Cuts_Implied                        1
CPXPARAM_MIP_Limits_GomoryCand                   25
CPXPARAM_MIP_Cuts_Gomory                         1
CPXPARAM_MIP_Cuts_PathCut                        2
CPXPARAM_MIP_Cuts_Disjunctive                    -1
CPXPARAM_Emphasis_MIP                            1
CPXPARAM_TimeLimit                               5
Tried aggregator 1 time.
MIP Presolve eliminated 595 rows and 0 columns.
MIP Presolve added 1190 rows and 0 columns.
MIP Presolve modified 10 coefficients.
Reduced MIP has 2515 rows, 2985 columns, and 7755 nonzeros.
Reduced MIP has 1195 binaries, 0 generals, 0 SOSs, and 0 indicators.
Presolve time = 0.00 sec. (4.53 ticks)
Probing fixed 0 vars, tightened 5487 bounds.
Probing time = 0.01 sec. (18.38 ticks)
Tried aggregator 2 times.
Detecting symmetries...
MIP Presolve modified 1206 coefficients.
Aggregator did 10 substitutions.
Reduced MIP has 2505 rows, 2975 columns, and 7735 nonzeros.
Reduced MIP has 1195 binaries, 0 generals, 0 SOSs, and 0 indicators.
Presolve time = 0.00 sec. (6.66 ticks)
Probing fixed 0 vars, tightened 2401 bounds.
Probing time = 0.00 sec. (6.41 ticks)
Clique table members: 190.
MIP emphasis: integer feasibility.
MIP search method: dynamic search.
Parallel mode: deterministic, using up to 8 threads.
Root relaxation solution time = 0.01 sec. (7.84 ticks)

        Nodes                                         Cuts/
   Node  Left     Objective  IInf  Best Integer    Best Bound    ItCnt     Gap

      0     0   348385.3466   472                 348385.3466      882         
      0     0   572993.6826   462                   Cuts: 726      903         
      0     0   809434.4586   694                   Cuts: 726      926         
      0     0   947932.6001   696                   Cuts: 726      955         
Detecting symmetries...
      0     2   947932.6001   696                 947932.6001      955         
Elapsed time = 0.37 sec. (413.94 ticks, tree = 0.02 MB, solutions = 0)
      3     3   948140.4358   694                 948140.4358      980         
     11     6   959816.1555   782                 948226.1156     1055         
     26    21   969113.5734   830                 959834.1867     1429         
     42    36   971077.7481   837                 959834.1867     1803         
     57    50   971963.6119   823                 959834.1867     2160         
     73    68   971617.1156   824                 959834.1867     2611         
     89    83   973579.6688   823                 959834.1867     2988         
    105    85   975593.6646   817                 959834.1867     3038         
    121   101   976995.6076   807                 959834.1867     3442         
    187   172   977920.3424   795                 959834.1867     5238         
Elapsed time = 2.56 sec. (3562.69 ticks, tree = 0.13 MB, solutions = 0)
    250   225   980806.0768   814                 959834.1867     6583         
    312   287   987773.8096   772                 959834.1867     8174         
    375   337   988927.7849   748                 959834.1867     9457         

Implied bound cuts applied:  17
Flow cuts applied:  474
Mixed integer rounding cuts applied:  401
Flow path cuts applied:  370
Multi commodity flow cuts applied:  15
Gomory fractional cuts applied:  13

Root node processing (before b&c):
  Real time             =    0.36 sec. (407.34 ticks)
Parallel b&c, 8 threads:
  Real time             =    4.64 sec. (6952.53 ticks)
  Sync time (average)   =    0.65 sec.
  Wait time (average)   =    0.00 sec.
                          ------------
Total (root+branch&cut) =    5.00 sec. (7359.88 ticks)
Gap: unavailable
Lower bound: 959834
Termination status: Normal
End of CPLEX run. Time: 5.00433 seconds
